
Gurobi 13.0.2 (win64) logging started Thu Jul 23 06:09:29 2026

Set parameter LogFile to value "E:\codes\ExactEBRP\results\gf_cplex_equivalent_gurobi_replica_round28\runs\stage2__tight_T_seed4101__c3_replica__300s\external\native_logs\R.0.1.0.0.1.1.0.0.0.1_terminal_mip.gurobi.log"
Gurobi Optimizer version 13.0.2 build v13.0.2rc1 (win64 - Windows 10.0 (19045.2))

CPU model: 12th Gen Intel(R) Core(TM) i7-12700KF, instruction set [SSE2|AVX|AVX2]
Thread count: 12 physical cores, 20 logical processors, using up to 1 threads

Non-default parameters:
TimeLimit  1.6948650819999997e+02
MIPGap  0
MIPGapAbs  0
LogToConsole  0
Threads  1

Optimize a model with 11897 rows, 3372 columns and 67355 nonzeros (Min)
Model fingerprint: 0x6f1387a0
Model has 21 linear objective coefficients
Variable types: 1683 continuous, 1689 integer (1489 binary)
Coefficient statistics:
  Matrix range     [7e-03, 2e+04]
  Objective range  [7e-03, 1e+00]
  Bounds range     [2e-01, 9e+02]
  RHS range        [2e-01, 5e+04]

Presolve removed 1597 rows and 94 columns
Presolve time: 0.21s
Presolved: 10300 rows, 3278 columns, 68332 nonzeros
Variable types: 1629 continuous, 1649 integer (1467 binary)

Root relaxation: objective 4.046611e-01, 3053 iterations, 0.14 seconds (0.36 work units)

    Nodes    |    Current Node    |     Objective Bounds      |     Work
 Expl Unexpl |  Obj  Depth IntInf | Incumbent    BestBd   Gap | It/Node Time

     0     0    0.40466    0  148          -    0.40466      -     -    0s
     0     0    0.42939    0  214          -    0.42939      -     -    0s
     0     0    0.49258    0  217          -    0.49258      -     -    1s
     0     0    0.51007    0  220          -    0.51007      -     -    1s
     0     0 infeasible    0               - infeasible      -     -    1s

Cutting planes:
  Learned: 6
  Gomory: 2
  Cover: 29
  Implied bound: 110
  Clique: 22
  MIR: 287
  StrongCG: 10
  Flow cover: 87
  GUB cover: 2
  Zero half: 2
  Network: 16
  RLT: 11
  Relax-and-lift: 75
  BQP: 12

Explored 1 nodes (6395 simplex iterations) in 1.71 seconds (2.91 work units)
Thread count was 1 (of 20 available processors)

Solution count 0

Model is infeasible
Best objective -, best bound -, gap -

User-callback calls 1264, time in user-callback 0.00 sec
